(set-logic ALL)
(declare-fun i1 () Int)
(declare-fun it520 () Int)
(declare-fun it521 () Int)
(declare-fun i2 () Int)
(declare-fun it522 () Int)
(declare-fun i3 () Int)
(declare-fun it523 () Int)
(declare-fun i4 () Int)
(declare-fun it524 () Int)
(declare-fun i5 () Int)
(declare-fun it525 () Int)
(declare-fun i6 () Int)
(declare-fun it526 () Int)
(declare-fun i7 () Int)
(declare-fun it607 () Int)
(declare-fun it608 () Int)
(declare-fun it609 () Int)
(declare-fun it610 () Int)
(declare-fun it611 () Int)
(declare-fun it612 () Int)
(declare-fun it613 () Int)
(declare-fun it614 () Int)
(declare-fun it615 () Int)
(declare-fun it616 () Int)
(declare-fun it617 () Int)
(declare-fun it618 () Int)
(declare-fun it619 () Int)
(declare-fun it620 () Int)
(declare-fun it632 () Int)
(declare-fun it633 () Int)
(declare-fun it634 () Int)
(declare-fun it635 () Int)
(declare-fun it636 () Int)
(declare-fun it637 () Int)
(declare-fun it638 () Int)
(declare-fun it641 () Int)
(declare-fun it642 () Int)
(declare-fun it643 () Int)
(declare-fun it644 () Int)
(declare-fun it645 () Int)
(declare-fun it646 () Int)
(declare-fun it647 () Int)
(declare-fun it117 () Int)
(assert (= (+ i1 (- 1)) 0))
(assert (= (+ it520 (- 2)) 0))
(assert (= (+ (* i2 (- 1)) it521 (- 1)) 0))
(assert (= (+ (* i3 (- 1)) it522) 0))
(assert (= (+ (* i4 (- 1)) it523) 0))
(assert (= (+ (* i5 (- 1)) it524) 0))
(assert (= (+ (* i6 (- 1)) it525) 0))
(assert (= (+ (* i7 (- 1)) it526) 0))
(assert (and (= (+ it520 (- 2)) 0)
     (> it522 0)
     (<= (+ it525 (- 5)) 0)
     (<= (+ (* it525 (- 1)) (- 5)) 0)))
(assert (= (+ it607 (- 3)) 0))
(assert (= (+ it608 (* it521 (- 1)) (- 2)) 0))
(assert (= (+ it609 (* it522 (- 1))) 0))
(assert (= (+ (* it522 (- 1)) it610) 0))
(assert (= (+ it611 (* it526 (- 1))) 0))
(assert (= (+ it612 (* it525 (- 1))) 0))
(assert (= (+ it613 (* it526 (- 1))) 0))
(assert (let ((a!1 (< (+ (* (exp it612 3) (+ 0 2))
                 (+ 0 (* it611 (- 3)))
                 (* (exp it610 2) (+ 0 4))
                 (exp it612 5))
              (+ 0 0)))
      (a!2 (< (+ (+ 0 (* it611 (- 1))) (exp it610 2) (exp it612 5)) (+ 0 0))))
  (and (= (+ it607 (- 3)) 0) a!1 (> it610 0) a!2 (< (* it610 (- 2)) 0))))
(assert (= (+ it614 (- 3)) 0))
(assert (= (+ (* it608 (- 1)) it615 (- 4)) 0))
(assert (= (+ (* it609 (- 1)) it616) 0))
(assert (= (+ (* it610 (- 4)) it617) 0))
(assert (= (+ (* (exp it612 3) (+ 0 8)) (+ 0 (* it611 (- 9))) (+ 0 it618))
   (+ 0 0)))
(assert (= (+ (* it612 (- 1)) it619) 0))
(assert (= (+ (* it613 (- 1)) it620) 0))
(assert (let ((a!1 (< (+ (exp it617 2) (exp it619 5) (+ 0 (* it618 (- 1)))) (+ 0 0))))
  (and (> it617 0) (= (+ it614 (- 3)) 0) a!1)))
(assert (= (+ it632 (- 3)) 0))
(assert (= (+ (* it615 (- 1)) it633 (- 2)) 0))
(assert (= (+ it634 (* it616 (- 1))) 0))
(assert (= (+ it635 (* it617 2)) 0))
(assert (let ((a!1 (+ (+ 0 (+ (* it618 (- 3)) it636)) (* (exp it619 3) (+ 0 2)))))
  (= a!1 (+ 0 0))))
(assert (= (+ it637 (* it619 (- 1))) 0))
(assert (= (+ it638 (* it620 (- 1))) 0))
(assert (let ((a!1 (< (+ (* (exp it635 2) (+ 0 4))
                 (exp it637 5)
                 (+ 0 (* it636 (- 3)))
                 (* (exp it637 3) (+ 0 2)))
              (+ 0 0)))
      (a!2 (< (+ (exp it635 2) (exp it637 5) (+ 0 (* it636 (- 1)))) (+ 0 0))))
  (and (< it635 0) a!1 a!2 (> (* it635 (- 2)) 0) (= (+ it632 (- 3)) 0))))
(assert (= (+ it641 (- 3)) 0))
(assert (= (+ it642 (* it633 (- 1)) (- 4)) 0))
(assert (= (+ it643 (* it634 (- 1))) 0))
(assert (= (+ it644 (* it635 (- 4))) 0))
(assert (let ((a!1 (+ (+ 0 (+ it645 (* it636 (- 9)))) (* (exp it637 3) (+ 0 8)))))
  (= a!1 (+ 0 0))))
(assert (= (+ it646 (* it637 (- 1))) 0))
(assert (= (+ it647 (* it638 (- 1))) 0))
(assert (let ((a!1 (> (+ (* (exp it644 2) (+ 0 (- 4)))
                 (* (exp it646 5) (+ 0 (- 1)))
                 (+ 0 (* it645 3))
                 (* (exp it646 3) (+ 0 (- 2))))
              (+ 0 0)))
      (a!2 (> (+ (* (exp it644 2) (+ 0 (- 1)))
                 (* (exp it646 5) (+ 0 (- 1)))
                 (+ 0 it645))
              (+ 0 0)))
      (a!3 (* (* (exp it646 3) (exp 9 (+ it117 (- 1)))) (+ 0 (- 3))))
      (a!4 (* (* (exp 9 (+ it117 (- 1))) (+ 0 it645)) (+ 0 3)))
      (a!5 (* (exp (exp 4 (+ it117 (- 1))) (+ 0 2)) (exp it644 2)))
      (a!7 (* (* (exp it646 3) (exp 9 (+ it117 (- 1)))) (+ 0 (- 1)))))
(let ((a!6 (> (+ a!3
                 (* (exp it646 5) (+ 0 (- 1)))
                 a!4
                 (exp it646 3)
                 (* a!5 (+ 0 (- 4))))
              (+ 0 0)))
      (a!8 (+ a!7
              (* (exp it646 5) (+ 0 (- 1)))
              (* (exp 9 (+ it117 (- 1))) (+ 0 it645))
              (exp it646 3)
              (* a!5 (+ 0 (- 1))))))
  (and (> (* it644 2) 0)
       a!1
       (>= (+ (* it641 (- 1)) 3) 0)
       (> it644 0)
       a!2
       a!6
       (> a!8 (+ 0 0))
       (>= (+ it117 (- 1)) 0)
       (>= (+ it641 (- 3)) 0)))))
(check-sat)
